p cnf 330 3228
1 2 3 4 5 6 7 8 9 10 11 0
12 13 14 15 16 17 18 19 20 21 22 0
23 24 25 26 27 28 29 30 31 32 33 0
34 35 36 37 38 39 40 41 42 43 44 0
45 46 47 48 49 50 51 52 53 54 55 0
56 57 58 59 60 61 62 63 64 65 66 0
67 68 69 70 71 72 73 74 75 76 77 0
78 79 80 81 82 83 84 85 86 87 88 0
89 90 91 92 93 94 95 96 97 98 99 0
100 101 102 103 104 105 106 107 108 109 110 0
111 112 113 114 115 116 117 118 119 120 121 0
122 123 124 125 126 127 128 129 130 131 132 0
133 134 135 136 137 138 139 140 141 142 143 0
144 145 146 147 148 149 150 151 152 153 154 0
155 156 157 158 159 160 161 162 163 164 165 0
166 167 168 169 170 171 172 173 174 175 176 0
177 178 179 180 181 182 183 184 185 186 187 0
188 189 190 191 192 193 194 195 196 197 198 0
199 200 201 202 203 204 205 206 207 208 209 0
210 211 212 213 214 215 216 217 218 219 220 0
221 222 223 224 225 226 227 228 229 230 231 0
232 233 234 235 236 237 238 239 240 241 242 0
243 244 245 246 247 248 249 250 251 252 253 0
254 255 256 257 258 259 260 261 262 263 264 0
265 266 267 268 269 270 271 272 273 274 275 0
276 277 278 279 280 281 282 283 284 285 286 0
287 288 289 290 291 292 293 294 295 296 297 0
298 299 300 301 302 303 304 305 306 307 308 0
309 310 311 312 313 314 315 316 317 318 319 0
320 321 322 323 324 325 326 327 328 329 330 0
-1 -2 0
-1 -3 0
-1 -4 0
-1 -5 0
-1 -6 0
-1 -7 0
-1 -8 0
-1 -9 0
-1 -10 0
-1 -11 0
-2 -3 0
-2 -4 0
-2 -5 0
-2 -6 0
-2 -7 0
-2 -8 0
-2 -9 0
-2 -10 0
-2 -11 0
-3 -4 0
-3 -5 0
-3 -6 0
-3 -7 0
-3 -8 0
-3 -9 0
-3 -10 0
-3 -11 0
-4 -5 0
-4 -6 0
-4 -7 0
-4 -8 0
-4 -9 0
-4 -10 0
-4 -11 0
-5 -6 0
-5 -7 0
-5 -8 0
-5 -9 0
-5 -10 0
-5 -11 0
-6 -7 0
-6 -8 0
-6 -9 0
-6 -10 0
-6 -11 0
-7 -8 0
-7 -9 0
-7 -10 0
-7 -11 0
-8 -9 0
-8 -10 0
-8 -11 0
-9 -10 0
-9 -11 0
-10 -11 0
-12 -13 0
-12 -14 0
-12 -15 0
-12 -16 0
-12 -17 0
-12 -18 0
-12 -19 0
-12 -20 0
-12 -21 0
-12 -22 0
-13 -14 0
-13 -15 0
-13 -16 0
-13 -17 0
-13 -18 0
-13 -19 0
-13 -20 0
-13 -21 0
-13 -22 0
-14 -15 0
-14 -16 0
-14 -17 0
-14 -18 0
-14 -19 0
-14 -20 0
-14 -21 0
-14 -22 0
-15 -16 0
-15 -17 0
-15 -18 0
-15 -19 0
-15 -20 0
-15 -21 0
-15 -22 0
-16 -17 0
-16 -18 0
-16 -19 0
-16 -20 0
-16 -21 0
-16 -22 0
-17 -18 0
-17 -19 0
-17 -20 0
-17 -21 0
-17 -22 0
-18 -19 0
-18 -20 0
-18 -21 0
-18 -22 0
-19 -20 0
-19 -21 0
-19 -22 0
-20 -21 0
-20 -22 0
-21 -22 0
-23 -24 0
-23 -25 0
-23 -26 0
-23 -27 0
-23 -28 0
-23 -29 0
-23 -30 0
-23 -31 0
-23 -32 0
-23 -33 0
-24 -25 0
-24 -26 0
-24 -27 0
-24 -28 0
-24 -29 0
-24 -30 0
-24 -31 0
-24 -32 0
-24 -33 0
-25 -26 0
-25 -27 0
-25 -28 0
-25 -29 0
-25 -30 0
-25 -31 0
-25 -32 0
-25 -33 0
-26 -27 0
-26 -28 0
-26 -29 0
-26 -30 0
-26 -31 0
-26 -32 0
-26 -33 0
-27 -28 0
-27 -29 0
-27 -30 0
-27 -31 0
-27 -32 0
-27 -33 0
-28 -29 0
-28 -30 0
-28 -31 0
-28 -32 0
-28 -33 0
-29 -30 0
-29 -31 0
-29 -32 0
-29 -33 0
-30 -31 0
-30 -32 0
-30 -33 0
-31 -32 0
-31 -33 0
-32 -33 0
-34 -35 0
-34 -36 0
-34 -37 0
-34 -38 0
-34 -39 0
-34 -40 0
-34 -41 0
-34 -42 0
-34 -43 0
-34 -44 0
-35 -36 0
-35 -37 0
-35 -38 0
-35 -39 0
-35 -40 0
-35 -41 0
-35 -42 0
-35 -43 0
-35 -44 0
-36 -37 0
-36 -38 0
-36 -39 0
-36 -40 0
-36 -41 0
-36 -42 0
-36 -43 0
-36 -44 0
-37 -38 0
-37 -39 0
-37 -40 0
-37 -41 0
-37 -42 0
-37 -43 0
-37 -44 0
-38 -39 0
-38 -40 0
-38 -41 0
-38 -42 0
-38 -43 0
-38 -44 0
-39 -40 0
-39 -41 0
-39 -42 0
-39 -43 0
-39 -44 0
-40 -41 0
-40 -42 0
-40 -43 0
-40 -44 0
-41 -42 0
-41 -43 0
-41 -44 0
-42 -43 0
-42 -44 0
-43 -44 0
-45 -46 0
-45 -47 0
-45 -48 0
-45 -49 0
-45 -50 0
-45 -51 0
-45 -52 0
-45 -53 0
-45 -54 0
-45 -55 0
-46 -47 0
-46 -48 0
-46 -49 0
-46 -50 0
-46 -51 0
-46 -52 0
-46 -53 0
-46 -54 0
-46 -55 0
-47 -48 0
-47 -49 0
-47 -50 0
-47 -51 0
-47 -52 0
-47 -53 0
-47 -54 0
-47 -55 0
-48 -49 0
-48 -50 0
-48 -51 0
-48 -52 0
-48 -53 0
-48 -54 0
-48 -55 0
-49 -50 0
-49 -51 0
-49 -52 0
-49 -53 0
-49 -54 0
-49 -55 0
-50 -51 0
-50 -52 0
-50 -53 0
-50 -54 0
-50 -55 0
-51 -52 0
-51 -53 0
-51 -54 0
-51 -55 0
-52 -53 0
-52 -54 0
-52 -55 0
-53 -54 0
-53 -55 0
-54 -55 0
-56 -57 0
-56 -58 0
-56 -59 0
-56 -60 0
-56 -61 0
-56 -62 0
-56 -63 0
-56 -64 0
-56 -65 0
-56 -66 0
-57 -58 0
-57 -59 0
-57 -60 0
-57 -61 0
-57 -62 0
-57 -63 0
-57 -64 0
-57 -65 0
-57 -66 0
-58 -59 0
-58 -60 0
-58 -61 0
-58 -62 0
-58 -63 0
-58 -64 0
-58 -65 0
-58 -66 0
-59 -60 0
-59 -61 0
-59 -62 0
-59 -63 0
-59 -64 0
-59 -65 0
-59 -66 0
-60 -61 0
-60 -62 0
-60 -63 0
-60 -64 0
-60 -65 0
-60 -66 0
-61 -62 0
-61 -63 0
-61 -64 0
-61 -65 0
-61 -66 0
-62 -63 0
-62 -64 0
-62 -65 0
-62 -66 0
-63 -64 0
-63 -65 0
-63 -66 0
-64 -65 0
-64 -66 0
-65 -66 0
-67 -68 0
-67 -69 0
-67 -70 0
-67 -71 0
-67 -72 0
-67 -73 0
-67 -74 0
-67 -75 0
-67 -76 0
-67 -77 0
-68 -69 0
-68 -70 0
-68 -71 0
-68 -72 0
-68 -73 0
-68 -74 0
-68 -75 0
-68 -76 0
-68 -77 0
-69 -70 0
-69 -71 0
-69 -72 0
-69 -73 0
-69 -74 0
-69 -75 0
-69 -76 0
-69 -77 0
-70 -71 0
-70 -72 0
-70 -73 0
-70 -74 0
-70 -75 0
-70 -76 0
-70 -77 0
-71 -72 0
-71 -73 0
-71 -74 0
-71 -75 0
-71 -76 0
-71 -77 0
-72 -73 0
-72 -74 0
-72 -75 0
-72 -76 0
-72 -77 0
-73 -74 0
-73 -75 0
-73 -76 0
-73 -77 0
-74 -75 0
-74 -76 0
-74 -77 0
-75 -76 0
-75 -77 0
-76 -77 0
-78 -79 0
-78 -80 0
-78 -81 0
-78 -82 0
-78 -83 0
-78 -84 0
-78 -85 0
-78 -86 0
-78 -87 0
-78 -88 0
-79 -80 0
-79 -81 0
-79 -82 0
-79 -83 0
-79 -84 0
-79 -85 0
-79 -86 0
-79 -87 0
-79 -88 0
-80 -81 0
-80 -82 0
-80 -83 0
-80 -84 0
-80 -85 0
-80 -86 0
-80 -87 0
-80 -88 0
-81 -82 0
-81 -83 0
-81 -84 0
-81 -85 0
-81 -86 0
-81 -87 0
-81 -88 0
-82 -83 0
-82 -84 0
-82 -85 0
-82 -86 0
-82 -87 0
-82 -88 0
-83 -84 0
-83 -85 0
-83 -86 0
-83 -87 0
-83 -88 0
-84 -85 0
-84 -86 0
-84 -87 0
-84 -88 0
-85 -86 0
-85 -87 0
-85 -88 0
-86 -87 0
-86 -88 0
-87 -88 0
-89 -90 0
-89 -91 0
-89 -92 0
-89 -93 0
-89 -94 0
-89 -95 0
-89 -96 0
-89 -97 0
-89 -98 0
-89 -99 0
-90 -91 0
-90 -92 0
-90 -93 0
-90 -94 0
-90 -95 0
-90 -96 0
-90 -97 0
-90 -98 0
-90 -99 0
-91 -92 0
-91 -93 0
-91 -94 0
-91 -95 0
-91 -96 0
-91 -97 0
-91 -98 0
-91 -99 0
-92 -93 0
-92 -94 0
-92 -95 0
-92 -96 0
-92 -97 0
-92 -98 0
-92 -99 0
-93 -94 0
-93 -95 0
-93 -96 0
-93 -97 0
-93 -98 0
-93 -99 0
-94 -95 0
-94 -96 0
-94 -97 0
-94 -98 0
-94 -99 0
-95 -96 0
-95 -97 0
-95 -98 0
-95 -99 0
-96 -97 0
-96 -98 0
-96 -99 0
-97 -98 0
-97 -99 0
-98 -99 0
-100 -101 0
-100 -102 0
-100 -103 0
-100 -104 0
-100 -105 0
-100 -106 0
-100 -107 0
-100 -108 0
-100 -109 0
-100 -110 0
-101 -102 0
-101 -103 0
-101 -104 0
-101 -105 0
-101 -106 0
-101 -107 0
-101 -108 0
-101 -109 0
-101 -110 0
-102 -103 0
-102 -104 0
-102 -105 0
-102 -106 0
-102 -107 0
-102 -108 0
-102 -109 0
-102 -110 0
-103 -104 0
-103 -105 0
-103 -106 0
-103 -107 0
-103 -108 0
-103 -109 0
-103 -110 0
-104 -105 0
-104 -106 0
-104 -107 0
-104 -108 0
-104 -109 0
-104 -110 0
-105 -106 0
-105 -107 0
-105 -108 0
-105 -109 0
-105 -110 0
-106 -107 0
-106 -108 0
-106 -109 0
-106 -110 0
-107 -108 0
-107 -109 0
-107 -110 0
-108 -109 0
-108 -110 0
-109 -110 0
-111 -112 0
-111 -113 0
-111 -114 0
-111 -115 0
-111 -116 0
-111 -117 0
-111 -118 0
-111 -119 0
-111 -120 0
-111 -121 0
-112 -113 0
-112 -114 0
-112 -115 0
-112 -116 0
-112 -117 0
-112 -118 0
-112 -119 0
-112 -120 0
-112 -121 0
-113 -114 0
-113 -115 0
-113 -116 0
-113 -117 0
-113 -118 0
-113 -119 0
-113 -120 0
-113 -121 0
-114 -115 0
-114 -116 0
-114 -117 0
-114 -118 0
-114 -119 0
-114 -120 0
-114 -121 0
-115 -116 0
-115 -117 0
-115 -118 0
-115 -119 0
-115 -120 0
-115 -121 0
-116 -117 0
-116 -118 0
-116 -119 0
-116 -120 0
-116 -121 0
-117 -118 0
-117 -119 0
-117 -120 0
-117 -121 0
-118 -119 0
-118 -120 0
-118 -121 0
-119 -120 0
-119 -121 0
-120 -121 0
-122 -123 0
-122 -124 0
-122 -125 0
-122 -126 0
-122 -127 0
-122 -128 0
-122 -129 0
-122 -130 0
-122 -131 0
-122 -132 0
-123 -124 0
-123 -125 0
-123 -126 0
-123 -127 0
-123 -128 0
-123 -129 0
-123 -130 0
-123 -131 0
-123 -132 0
-124 -125 0
-124 -126 0
-124 -127 0
-124 -128 0
-124 -129 0
-124 -130 0
-124 -131 0
-124 -132 0
-125 -126 0
-125 -127 0
-125 -128 0
-125 -129 0
-125 -130 0
-125 -131 0
-125 -132 0
-126 -127 0
-126 -128 0
-126 -129 0
-126 -130 0
-126 -131 0
-126 -132 0
-127 -128 0
-127 -129 0
-127 -130 0
-127 -131 0
-127 -132 0
-128 -129 0
-128 -130 0
-128 -131 0
-128 -132 0
-129 -130 0
-129 -131 0
-129 -132 0
-130 -131 0
-130 -132 0
-131 -132 0
-133 -134 0
-133 -135 0
-133 -136 0
-133 -137 0
-133 -138 0
-133 -139 0
-133 -140 0
-133 -141 0
-133 -142 0
-133 -143 0
-134 -135 0
-134 -136 0
-134 -137 0
-134 -138 0
-134 -139 0
-134 -140 0
-134 -141 0
-134 -142 0
-134 -143 0
-135 -136 0
-135 -137 0
-135 -138 0
-135 -139 0
-135 -140 0
-135 -141 0
-135 -142 0
-135 -143 0
-136 -137 0
-136 -138 0
-136 -139 0
-136 -140 0
-136 -141 0
-136 -142 0
-136 -143 0
-137 -138 0
-137 -139 0
-137 -140 0
-137 -141 0
-137 -142 0
-137 -143 0
-138 -139 0
-138 -140 0
-138 -141 0
-138 -142 0
-138 -143 0
-139 -140 0
-139 -141 0
-139 -142 0
-139 -143 0
-140 -141 0
-140 -142 0
-140 -143 0
-141 -142 0
-141 -143 0
-142 -143 0
-144 -145 0
-144 -146 0
-144 -147 0
-144 -148 0
-144 -149 0
-144 -150 0
-144 -151 0
-144 -152 0
-144 -153 0
-144 -154 0
-145 -146 0
-145 -147 0
-145 -148 0
-145 -149 0
-145 -150 0
-145 -151 0
-145 -152 0
-145 -153 0
-145 -154 0
-146 -147 0
-146 -148 0
-146 -149 0
-146 -150 0
-146 -151 0
-146 -152 0
-146 -153 0
-146 -154 0
-147 -148 0
-147 -149 0
-147 -150 0
-147 -151 0
-147 -152 0
-147 -153 0
-147 -154 0
-148 -149 0
-148 -150 0
-148 -151 0
-148 -152 0
-148 -153 0
-148 -154 0
-149 -150 0
-149 -151 0
-149 -152 0
-149 -153 0
-149 -154 0
-150 -151 0
-150 -152 0
-150 -153 0
-150 -154 0
-151 -152 0
-151 -153 0
-151 -154 0
-152 -153 0
-152 -154 0
-153 -154 0
-155 -156 0
-155 -157 0
-155 -158 0
-155 -159 0
-155 -160 0
-155 -161 0
-155 -162 0
-155 -163 0
-155 -164 0
-155 -165 0
-156 -157 0
-156 -158 0
-156 -159 0
-156 -160 0
-156 -161 0
-156 -162 0
-156 -163 0
-156 -164 0
-156 -165 0
-157 -158 0
-157 -159 0
-157 -160 0
-157 -161 0
-157 -162 0
-157 -163 0
-157 -164 0
-157 -165 0
-158 -159 0
-158 -160 0
-158 -161 0
-158 -162 0
-158 -163 0
-158 -164 0
-158 -165 0
-159 -160 0
-159 -161 0
-159 -162 0
-159 -163 0
-159 -164 0
-159 -165 0
-160 -161 0
-160 -162 0
-160 -163 0
-160 -164 0
-160 -165 0
-161 -162 0
-161 -163 0
-161 -164 0
-161 -165 0
-162 -163 0
-162 -164 0
-162 -165 0
-163 -164 0
-163 -165 0
-164 -165 0
-166 -167 0
-166 -168 0
-166 -169 0
-166 -170 0
-166 -171 0
-166 -172 0
-166 -173 0
-166 -174 0
-166 -175 0
-166 -176 0
-167 -168 0
-167 -169 0
-167 -170 0
-167 -171 0
-167 -172 0
-167 -173 0
-167 -174 0
-167 -175 0
-167 -176 0
-168 -169 0
-168 -170 0
-168 -171 0
-168 -172 0
-168 -173 0
-168 -174 0
-168 -175 0
-168 -176 0
-169 -170 0
-169 -171 0
-169 -172 0
-169 -173 0
-169 -174 0
-169 -175 0
-169 -176 0
-170 -171 0
-170 -172 0
-170 -173 0
-170 -174 0
-170 -175 0
-170 -176 0
-171 -172 0
-171 -173 0
-171 -174 0
-171 -175 0
-171 -176 0
-172 -173 0
-172 -174 0
-172 -175 0
-172 -176 0
-173 -174 0
-173 -175 0
-173 -176 0
-174 -175 0
-174 -176 0
-175 -176 0
-177 -178 0
-177 -179 0
-177 -180 0
-177 -181 0
-177 -182 0
-177 -183 0
-177 -184 0
-177 -185 0
-177 -186 0
-177 -187 0
-178 -179 0
-178 -180 0
-178 -181 0
-178 -182 0
-178 -183 0
-178 -184 0
-178 -185 0
-178 -186 0
-178 -187 0
-179 -180 0
-179 -181 0
-179 -182 0
-179 -183 0
-179 -184 0
-179 -185 0
-179 -186 0
-179 -187 0
-180 -181 0
-180 -182 0
-180 -183 0
-180 -184 0
-180 -185 0
-180 -186 0
-180 -187 0
-181 -182 0
-181 -183 0
-181 -184 0
-181 -185 0
-181 -186 0
-181 -187 0
-182 -183 0
-182 -184 0
-182 -185 0
-182 -186 0
-182 -187 0
-183 -184 0
-183 -185 0
-183 -186 0
-183 -187 0
-184 -185 0
-184 -186 0
-184 -187 0
-185 -186 0
-185 -187 0
-186 -187 0
-188 -189 0
-188 -190 0
-188 -191 0
-188 -192 0
-188 -193 0
-188 -194 0
-188 -195 0
-188 -196 0
-188 -197 0
-188 -198 0
-189 -190 0
-189 -191 0
-189 -192 0
-189 -193 0
-189 -194 0
-189 -195 0
-189 -196 0
-189 -197 0
-189 -198 0
-190 -191 0
-190 -192 0
-190 -193 0
-190 -194 0
-190 -195 0
-190 -196 0
-190 -197 0
-190 -198 0
-191 -192 0
-191 -193 0
-191 -194 0
-191 -195 0
-191 -196 0
-191 -197 0
-191 -198 0
-192 -193 0
-192 -194 0
-192 -195 0
-192 -196 0
-192 -197 0
-192 -198 0
-193 -194 0
-193 -195 0
-193 -196 0
-193 -197 0
-193 -198 0
-194 -195 0
-194 -196 0
-194 -197 0
-194 -198 0
-195 -196 0
-195 -197 0
-195 -198 0
-196 -197 0
-196 -198 0
-197 -198 0
-199 -200 0
-199 -201 0
-199 -202 0
-199 -203 0
-199 -204 0
-199 -205 0
-199 -206 0
-199 -207 0
-199 -208 0
-199 -209 0
-200 -201 0
-200 -202 0
-200 -203 0
-200 -204 0
-200 -205 0
-200 -206 0
-200 -207 0
-200 -208 0
-200 -209 0
-201 -202 0
-201 -203 0
-201 -204 0
-201 -205 0
-201 -206 0
-201 -207 0
-201 -208 0
-201 -209 0
-202 -203 0
-202 -204 0
-202 -205 0
-202 -206 0
-202 -207 0
-202 -208 0
-202 -209 0
-203 -204 0
-203 -205 0
-203 -206 0
-203 -207 0
-203 -208 0
-203 -209 0
-204 -205 0
-204 -206 0
-204 -207 0
-204 -208 0
-204 -209 0
-205 -206 0
-205 -207 0
-205 -208 0
-205 -209 0
-206 -207 0
-206 -208 0
-206 -209 0
-207 -208 0
-207 -209 0
-208 -209 0
-210 -211 0
-210 -212 0
-210 -213 0
-210 -214 0
-210 -215 0
-210 -216 0
-210 -217 0
-210 -218 0
-210 -219 0
-210 -220 0
-211 -212 0
-211 -213 0
-211 -214 0
-211 -215 0
-211 -216 0
-211 -217 0
-211 -218 0
-211 -219 0
-211 -220 0
-212 -213 0
-212 -214 0
-212 -215 0
-212 -216 0
-212 -217 0
-212 -218 0
-212 -219 0
-212 -220 0
-213 -214 0
-213 -215 0
-213 -216 0
-213 -217 0
-213 -218 0
-213 -219 0
-213 -220 0
-214 -215 0
-214 -216 0
-214 -217 0
-214 -218 0
-214 -219 0
-214 -220 0
-215 -216 0
-215 -217 0
-215 -218 0
-215 -219 0
-215 -220 0
-216 -217 0
-216 -218 0
-216 -219 0
-216 -220 0
-217 -218 0
-217 -219 0
-217 -220 0
-218 -219 0
-218 -220 0
-219 -220 0
-221 -222 0
-221 -223 0
-221 -224 0
-221 -225 0
-221 -226 0
-221 -227 0
-221 -228 0
-221 -229 0
-221 -230 0
-221 -231 0
-222 -223 0
-222 -224 0
-222 -225 0
-222 -226 0
-222 -227 0
-222 -228 0
-222 -229 0
-222 -230 0
-222 -231 0
-223 -224 0
-223 -225 0
-223 -226 0
-223 -227 0
-223 -228 0
-223 -229 0
-223 -230 0
-223 -231 0
-224 -225 0
-224 -226 0
-224 -227 0
-224 -228 0
-224 -229 0
-224 -230 0
-224 -231 0
-225 -226 0
-225 -227 0
-225 -228 0
-225 -229 0
-225 -230 0
-225 -231 0
-226 -227 0
-226 -228 0
-226 -229 0
-226 -230 0
-226 -231 0
-227 -228 0
-227 -229 0
-227 -230 0
-227 -231 0
-228 -229 0
-228 -230 0
-228 -231 0
-229 -230 0
-229 -231 0
-230 -231 0
-232 -233 0
-232 -234 0
-232 -235 0
-232 -236 0
-232 -237 0
-232 -238 0
-232 -239 0
-232 -240 0
-232 -241 0
-232 -242 0
-233 -234 0
-233 -235 0
-233 -236 0
-233 -237 0
-233 -238 0
-233 -239 0
-233 -240 0
-233 -241 0
-233 -242 0
-234 -235 0
-234 -236 0
-234 -237 0
-234 -238 0
-234 -239 0
-234 -240 0
-234 -241 0
-234 -242 0
-235 -236 0
-235 -237 0
-235 -238 0
-235 -239 0
-235 -240 0
-235 -241 0
-235 -242 0
-236 -237 0
-236 -238 0
-236 -239 0
-236 -240 0
-236 -241 0
-236 -242 0
-237 -238 0
-237 -239 0
-237 -240 0
-237 -241 0
-237 -242 0
-238 -239 0
-238 -240 0
-238 -241 0
-238 -242 0
-239 -240 0
-239 -241 0
-239 -242 0
-240 -241 0
-240 -242 0
-241 -242 0
-243 -244 0
-243 -245 0
-243 -246 0
-243 -247 0
-243 -248 0
-243 -249 0
-243 -250 0
-243 -251 0
-243 -252 0
-243 -253 0
-244 -245 0
-244 -246 0
-244 -247 0
-244 -248 0
-244 -249 0
-244 -250 0
-244 -251 0
-244 -252 0
-244 -253 0
-245 -246 0
-245 -247 0
-245 -248 0
-245 -249 0
-245 -250 0
-245 -251 0
-245 -252 0
-245 -253 0
-246 -247 0
-246 -248 0
-246 -249 0
-246 -250 0
-246 -251 0
-246 -252 0
-246 -253 0
-247 -248 0
-247 -249 0
-247 -250 0
-247 -251 0
-247 -252 0
-247 -253 0
-248 -249 0
-248 -250 0
-248 -251 0
-248 -252 0
-248 -253 0
-249 -250 0
-249 -251 0
-249 -252 0
-249 -253 0
-250 -251 0
-250 -252 0
-250 -253 0
-251 -252 0
-251 -253 0
-252 -253 0
-254 -255 0
-254 -256 0
-254 -257 0
-254 -258 0
-254 -259 0
-254 -260 0
-254 -261 0
-254 -262 0
-254 -263 0
-254 -264 0
-255 -256 0
-255 -257 0
-255 -258 0
-255 -259 0
-255 -260 0
-255 -261 0
-255 -262 0
-255 -263 0
-255 -264 0
-256 -257 0
-256 -258 0
-256 -259 0
-256 -260 0
-256 -261 0
-256 -262 0
-256 -263 0
-256 -264 0
-257 -258 0
-257 -259 0
-257 -260 0
-257 -261 0
-257 -262 0
-257 -263 0
-257 -264 0
-258 -259 0
-258 -260 0
-258 -261 0
-258 -262 0
-258 -263 0
-258 -264 0
-259 -260 0
-259 -261 0
-259 -262 0
-259 -263 0
-259 -264 0
-260 -261 0
-260 -262 0
-260 -263 0
-260 -264 0
-261 -262 0
-261 -263 0
-261 -264 0
-262 -263 0
-262 -264 0
-263 -264 0
-265 -266 0
-265 -267 0
-265 -268 0
-265 -269 0
-265 -270 0
-265 -271 0
-265 -272 0
-265 -273 0
-265 -274 0
-265 -275 0
-266 -267 0
-266 -268 0
-266 -269 0
-266 -270 0
-266 -271 0
-266 -272 0
-266 -273 0
-266 -274 0
-266 -275 0
-267 -268 0
-267 -269 0
-267 -270 0
-267 -271 0
-267 -272 0
-267 -273 0
-267 -274 0
-267 -275 0
-268 -269 0
-268 -270 0
-268 -271 0
-268 -272 0
-268 -273 0
-268 -274 0
-268 -275 0
-269 -270 0
-269 -271 0
-269 -272 0
-269 -273 0
-269 -274 0
-269 -275 0
-270 -271 0
-270 -272 0
-270 -273 0
-270 -274 0
-270 -275 0
-271 -272 0
-271 -273 0
-271 -274 0
-271 -275 0
-272 -273 0
-272 -274 0
-272 -275 0
-273 -274 0
-273 -275 0
-274 -275 0
-276 -277 0
-276 -278 0
-276 -279 0
-276 -280 0
-276 -281 0
-276 -282 0
-276 -283 0
-276 -284 0
-276 -285 0
-276 -286 0
-277 -278 0
-277 -279 0
-277 -280 0
-277 -281 0
-277 -282 0
-277 -283 0
-277 -284 0
-277 -285 0
-277 -286 0
-278 -279 0
-278 -280 0
-278 -281 0
-278 -282 0
-278 -283 0
-278 -284 0
-278 -285 0
-278 -286 0
-279 -280 0
-279 -281 0
-279 -282 0
-279 -283 0
-279 -284 0
-279 -285 0
-279 -286 0
-280 -281 0
-280 -282 0
-280 -283 0
-280 -284 0
-280 -285 0
-280 -286 0
-281 -282 0
-281 -283 0
-281 -284 0
-281 -285 0
-281 -286 0
-282 -283 0
-282 -284 0
-282 -285 0
-282 -286 0
-283 -284 0
-283 -285 0
-283 -286 0
-284 -285 0
-284 -286 0
-285 -286 0
-287 -288 0
-287 -289 0
-287 -290 0
-287 -291 0
-287 -292 0
-287 -293 0
-287 -294 0
-287 -295 0
-287 -296 0
-287 -297 0
-288 -289 0
-288 -290 0
-288 -291 0
-288 -292 0
-288 -293 0
-288 -294 0
-288 -295 0
-288 -296 0
-288 -297 0
-289 -290 0
-289 -291 0
-289 -292 0
-289 -293 0
-289 -294 0
-289 -295 0
-289 -296 0
-289 -297 0
-290 -291 0
-290 -292 0
-290 -293 0
-290 -294 0
-290 -295 0
-290 -296 0
-290 -297 0
-291 -292 0
-291 -293 0
-291 -294 0
-291 -295 0
-291 -296 0
-291 -297 0
-292 -293 0
-292 -294 0
-292 -295 0
-292 -296 0
-292 -297 0
-293 -294 0
-293 -295 0
-293 -296 0
-293 -297 0
-294 -295 0
-294 -296 0
-294 -297 0
-295 -296 0
-295 -297 0
-296 -297 0
-298 -299 0
-298 -300 0
-298 -301 0
-298 -302 0
-298 -303 0
-298 -304 0
-298 -305 0
-298 -306 0
-298 -307 0
-298 -308 0
-299 -300 0
-299 -301 0
-299 -302 0
-299 -303 0
-299 -304 0
-299 -305 0
-299 -306 0
-299 -307 0
-299 -308 0
-300 -301 0
-300 -302 0
-300 -303 0
-300 -304 0
-300 -305 0
-300 -306 0
-300 -307 0
-300 -308 0
-301 -302 0
-301 -303 0
-301 -304 0
-301 -305 0
-301 -306 0
-301 -307 0
-301 -308 0
-302 -303 0
-302 -304 0
-302 -305 0
-302 -306 0
-302 -307 0
-302 -308 0
-303 -304 0
-303 -305 0
-303 -306 0
-303 -307 0
-303 -308 0
-304 -305 0
-304 -306 0
-304 -307 0
-304 -308 0
-305 -306 0
-305 -307 0
-305 -308 0
-306 -307 0
-306 -308 0
-307 -308 0
-309 -310 0
-309 -311 0
-309 -312 0
-309 -313 0
-309 -314 0
-309 -315 0
-309 -316 0
-309 -317 0
-309 -318 0
-309 -319 0
-310 -311 0
-310 -312 0
-310 -313 0
-310 -314 0
-310 -315 0
-310 -316 0
-310 -317 0
-310 -318 0
-310 -319 0
-311 -312 0
-311 -313 0
-311 -314 0
-311 -315 0
-311 -316 0
-311 -317 0
-311 -318 0
-311 -319 0
-312 -313 0
-312 -314 0
-312 -315 0
-312 -316 0
-312 -317 0
-312 -318 0
-312 -319 0
-313 -314 0
-313 -315 0
-313 -316 0
-313 -317 0
-313 -318 0
-313 -319 0
-314 -315 0
-314 -316 0
-314 -317 0
-314 -318 0
-314 -319 0
-315 -316 0
-315 -317 0
-315 -318 0
-315 -319 0
-316 -317 0
-316 -318 0
-316 -319 0
-317 -318 0
-317 -319 0
-318 -319 0
-320 -321 0
-320 -322 0
-320 -323 0
-320 -324 0
-320 -325 0
-320 -326 0
-320 -327 0
-320 -328 0
-320 -329 0
-320 -330 0
-321 -322 0
-321 -323 0
-321 -324 0
-321 -325 0
-321 -326 0
-321 -327 0
-321 -328 0
-321 -329 0
-321 -330 0
-322 -323 0
-322 -324 0
-322 -325 0
-322 -326 0
-322 -327 0
-322 -328 0
-322 -329 0
-322 -330 0
-323 -324 0
-323 -325 0
-323 -326 0
-323 -327 0
-323 -328 0
-323 -329 0
-323 -330 0
-324 -325 0
-324 -326 0
-324 -327 0
-324 -328 0
-324 -329 0
-324 -330 0
-325 -326 0
-325 -327 0
-325 -328 0
-325 -329 0
-325 -330 0
-326 -327 0
-326 -328 0
-326 -329 0
-326 -330 0
-327 -328 0
-327 -329 0
-327 -330 0
-328 -329 0
-328 -330 0
-329 -330 0
-1 -160 0
-7 -157 0
-5 -163 0
-10 -162 0
-3 -158 0
-11 -158 0
-4 -156 0
-10 -159 0
-3 -164 0
-2 -159 0
-3 -159 0
-10 -165 0
-9 -157 0
-4 -155 0
-6 -160 0
-8 -162 0
-6 -158 0
-1 -158 0
-1 -155 0
-3 -160 0
-5 -160 0
-6 -165 0
-2 -162 0
-1 -162 0
-8 -159 0
-3 -162 0
-8 -160 0
-1 -159 0
-7 -159 0
-5 -156 0
-6 -157 0
-7 -156 0
-3 -155 0
-1 -164 0
-7 -162 0
-10 -163 0
-5 -184 0
-5 -181 0
-8 -185 0
-5 -182 0
-7 -182 0
-1 -181 0
-1 -184 0
-5 -177 0
-6 -184 0
-2 -186 0
-1 -178 0
-1 -182 0
-1 -187 0
-7 -185 0
-10 -187 0
-8 -180 0
-6 -179 0
-11 -183 0
-8 -181 0
-8 -184 0
-1 -179 0
-6 -178 0
-10 -186 0
-9 -179 0
-10 -178 0
-11 -186 0
-8 -178 0
-2 -178 0
-3 -179 0
-6 -185 0
-2 -177 0
-9 -182 0
-5 -187 0
-1 -180 0
-7 -184 0
-3 -180 0
-21 -103 0
-22 -103 0
-15 -109 0
-13 -106 0
-14 -105 0
-12 -103 0
-18 -106 0
-16 -106 0
-16 -104 0
-22 -108 0
-22 -106 0
-17 -100 0
-15 -104 0
-21 -107 0
-14 -110 0
-14 -104 0
-12 -105 0
-19 -108 0
-15 -100 0
-13 -104 0
-13 -110 0
-13 -108 0
-19 -101 0
-22 -100 0
-18 -108 0
-22 -110 0
-16 -109 0
-21 -110 0
-19 -107 0
-13 -107 0
-16 -102 0
-17 -103 0
-18 -103 0
-17 -101 0
-21 -108 0
-21 -104 0
-26 -107 0
-28 -106 0
-23 -110 0
-23 -103 0
-30 -105 0
-29 -108 0
-30 -101 0
-29 -100 0
-24 -101 0
-28 -107 0
-28 -104 0
-25 -106 0
-24 -104 0
-31 -103 0
-31 -102 0
-33 -109 0
-27 -106 0
-27 -102 0
-23 -105 0
-32 -101 0
-24 -108 0
-31 -110 0
-32 -109 0
-32 -108 0
-30 -100 0
-27 -105 0
-25 -104 0
-26 -105 0
-24 -102 0
-28 -109 0
-30 -104 0
-28 -101 0
-31 -101 0
-31 -109 0
-29 -110 0
-32 -102 0
-32 -146 0
-28 -150 0
-30 -153 0
-33 -147 0
-33 -146 0
-32 -152 0
-28 -148 0
-27 -148 0
-27 -152 0
-28 -154 0
-23 -153 0
-25 -153 0
-29 -151 0
-28 -152 0
-24 -149 0
-26 -146 0
-26 -149 0
-26 -147 0
-33 -154 0
-29 -147 0
-24 -154 0
-32 -147 0
-25 -147 0
-24 -148 0
-32 -144 0
-24 -151 0
-31 -150 0
-30 -144 0
-23 -150 0
-25 -152 0
-32 -148 0
-31 -149 0
-30 -150 0
-25 -144 0
-32 -150 0
-25 -151 0
-39 -301 0
-34 -307 0
-35 -301 0
-43 -304 0
-38 -301 0
-42 -299 0
-37 -306 0
-39 -298 0
-41 -302 0
-42 -301 0
-34 -306 0
-37 -302 0
-37 -303 0
-44 -299 0
-40 -298 0
-43 -307 0
-37 -304 0
-40 -307 0
-39 -303 0
-43 -299 0
-35 -298 0
-41 -300 0
-36 -302 0
-34 -303 0
-34 -304 0
-42 -305 0
-38 -299 0
-39 -304 0
-35 -306 0
-38 -304 0
-37 -308 0
-35 -304 0
-38 -300 0
-34 -302 0
-35 -302 0
-42 -307 0
-51 -134 0
-45 -133 0
-54 -142 0
-48 -143 0
-47 -140 0
-55 -136 0
-48 -137 0
-52 -143 0
-50 -142 0
-45 -136 0
-48 -136 0
-51 -142 0
-51 -133 0
-51 -143 0
-53 -140 0
-54 -141 0
-52 -133 0
-47 -136 0
-55 -134 0
-47 -137 0
-49 -137 0
-47 -141 0
-46 -137 0
-55 -137 0
-47 -134 0
-46 -138 0
-52 -135 0
-49 -133 0
-52 -140 0
-45 -143 0
-51 -139 0
-46 -135 0
-45 -140 0
-53 -134 0
-46 -133 0
-49 -140 0
-50 -233 0
-51 -238 0
-54 -238 0
-51 -242 0
-48 -235 0
-53 -235 0
-46 -239 0
-46 -240 0
-48 -237 0
-49 -241 0
-53 -236 0
-46 -232 0
-52 -237 0
-46 -234 0
-47 -242 0
-47 -232 0
-47 -241 0
-50 -236 0
-52 -238 0
-48 -239 0
-47 -235 0
-51 -241 0
-45 -240 0
-46 -236 0
-51 -235 0
-47 -233 0
-55 -233 0
-51 -239 0
-51 -233 0
-52 -241 0
-49 -233 0
-51 -236 0
-50 -242 0
-55 -242 0
-54 -232 0
-53 -234 0
-51 -269 0
-54 -271 0
-52 -265 0
-46 -265 0
-53 -266 0
-48 -275 0
-48 -268 0
-52 -274 0
-51 -272 0
-55 -266 0
-52 -275 0
-54 -274 0
-53 -273 0
-53 -269 0
-55 -273 0
-50 -273 0
-52 -267 0
-50 -266 0
-49 -274 0
-54 -273 0
-50 -269 0
-55 -265 0
-51 -266 0
-49 -268 0
-54 -272 0
-53 -274 0
-53 -272 0
-52 -273 0
-49 -272 0
-50 -272 0
-49 -265 0
-52 -266 0
-49 -275 0
-48 -266 0
-50 -270 0
-46 -270 0
-65 -264 0
-58 -256 0
-62 -262 0
-61 -255 0
-66 -262 0
-63 -263 0
-64 -258 0
-61 -258 0
-59 -261 0
-61 -261 0
-57 -262 0
-58 -262 0
-57 -257 0
-56 -257 0
-63 -264 0
-66 -254 0
-60 -259 0
-57 -259 0
-62 -256 0
-63 -256 0
-63 -258 0
-56 -255 0
-58 -258 0
-66 -256 0
-59 -255 0
-56 -258 0
-65 -258 0
-59 -254 0
-56 -256 0
-63 -259 0
-60 -254 0
-60 -255 0
-58 -263 0
-58 -254 0
-60 -261 0
-57 -261 0
-61 -299 0
-58 -308 0
-62 -307 0
-56 -305 0
-61 -306 0
-58 -300 0
-64 -299 0
-57 -299 0
-60 -305 0
-62 -306 0
-58 -305 0
-62 -301 0
-63 -306 0
-64 -304 0
-57 -301 0
-63 -304 0
-57 -308 0
-61 -300 0
-62 -305 0
-64 -301 0
-66 -302 0
-57 -302 0
-59 -306 0
-57 -304 0
-65 -305 0
-60 -308 0
-66 -298 0
-63 -301 0
-64 -303 0
-66 -300 0
-65 -299 0
-61 -303 0
-56 -302 0
-66 -308 0
-61 -308 0
-58 -307 0
-72 -116 0
-67 -112 0
-74 -116 0
-77 -118 0
-73 -114 0
-73 -111 0
-76 -120 0
-70 -113 0
-67 -119 0
-68 -117 0
-74 -115 0
-69 -113 0
-68 -114 0
-67 -121 0
-75 -114 0
-73 -116 0
-75 -120 0
-72 -115 0
-68 -115 0
-77 -115 0
-69 -118 0
-75 -121 0
-73 -115 0
-71 -111 0
-73 -117 0
-76 -113 0
-68 -111 0
-74 -117 0
-74 -120 0
-68 -116 0
-71 -121 0
-71 -116 0
-76 -115 0
-76 -117 0
-71 -118 0
-75 -119 0
-67 -155 0
-73 -156 0
-72 -157 0
-76 -160 0
-75 -161 0
-75 -156 0
-71 -155 0
-75 -162 0
-76 -156 0
-70 -158 0
-75 -159 0
-75 -158 0
-75 -157 0
-69 -164 0
-69 -156 0
-72 -164 0
-73 -159 0
-73 -165 0
-68 -158 0
-77 -156 0
-71 -165 0
-77 -161 0
-69 -163 0
-76 -161 0
-74 -163 0
-70 -156 0
-67 -159 0
-69 -159 0
-76 -157 0
-67 -162 0
-70 -155 0
-69 -155 0
-69 -158 0
-71 -161 0
-70 -160 0
-74 -158 0
-67 -231 0
-70 -221 0
-70 -224 0
-76 -229 0
-70 -225 0
-75 -230 0
-68 -223 0
-75 -228 0
-72 -221 0
-75 -224 0
-74 -231 0
-69 -221 0
-71 -226 0
-67 -225 0
-77 -231 0
-73 -227 0
-73 -228 0
-72 -223 0
-74 -224 0
-68 -225 0
-75 -231 0
-75 -229 0
-72 -226 0
-75 -227 0
-74 -230 0
-74 -221 0
-68 -227 0
-71 -225 0
-76 -224 0
-67 -221 0
-73 -226 0
-76 -228 0
-73 -230 0
-75 -225 0
-67 -226 0
-68 -221 0
-72 -316 0
-70 -314 0
-69 -312 0
-70 -311 0
-77 -315 0
-75 -316 0
-69 -319 0
-67 -316 0
-73 -319 0
-75 -314 0
-76 -313 0
-75 -312 0
-76 -318 0
-71 -316 0
-70 -317 0
-72 -319 0
-67 -315 0
-68 -318 0
-68 -314 0
-77 -317 0
-67 -310 0
-74 -311 0
-74 -316 0
-72 -309 0
-71 -310 0
-68 -316 0
-76 -311 0
-74 -317 0
-67 -311 0
-74 -310 0
-72 -312 0
-71 -315 0
-74 -318 0
-72 -314 0
-67 -318 0
-75 -310 0
-88 -89 0
-80 -96 0
-81 -92 0
-87 -97 0
-81 -95 0
-86 -99 0
-86 -89 0
-85 -91 0
-82 -89 0
-80 -94 0
-79 -98 0
-81 -93 0
-87 -90 0
-80 -99 0
-80 -91 0
-79 -93 0
-81 -91 0
-87 -93 0
-84 -96 0
-85 -98 0
-87 -92 0
-83 -94 0
-79 -95 0
-78 -94 0
-86 -98 0
-88 -94 0
-78 -97 0
-83 -98 0
-82 -98 0
-87 -96 0
-84 -95 0
-80 -95 0
-79 -91 0
-82 -90 0
-87 -99 0
-86 -96 0
-97 -251 0
-89 -251 0
-94 -246 0
-93 -243 0
-97 -253 0
-90 -250 0
-98 -253 0
-96 -247 0
-91 -244 0
-91 -253 0
-96 -253 0
-98 -249 0
-97 -249 0
-90 -247 0
-98 -252 0
-98 -250 0
-96 -251 0
-94 -247 0
-91 -246 0
-89 -243 0
-91 -251 0
-97 -243 0
-99 -243 0
-93 -245 0
-95 -253 0
-93 -248 0
-92 -249 0
-97 -246 0
-99 -253 0
-99 -247 0
-96 -250 0
-92 -245 0
-93 -246 0
-99 -244 0
-98 -244 0
-98 -247 0
-105 -124 0
-108 -125 0
-109 -125 0
-109 -132 0
-108 -126 0
-109 -129 0
-101 -125 0
-105 -126 0
-107 -129 0
-106 -123 0
-106 -125 0
-104 -126 0
-104 -131 0
-108 -129 0
-103 -130 0
-110 -128 0
-109 -131 0
-107 -124 0
-105 -122 0
-110 -127 0
-108 -130 0
-106 -126 0
-108 -127 0
-100 -125 0
-108 -123 0
-110 -124 0
-106 -127 0
-108 -128 0
-102 -127 0
-103 -123 0
-109 -130 0
-107 -128 0
-105 -128 0
-101 -131 0
-103 -132 0
-103 -122 0
-116 -153 0
-121 -144 0
-121 -149 0
-120 -146 0
-114 -148 0
-115 -148 0
-113 -147 0
-112 -146 0
-121 -148 0
-117 -145 0
-112 -149 0
-115 -146 0
-113 -149 0
-120 -151 0
-112 -151 0
-114 -147 0
-117 -149 0
-117 -146 0
-111 -150 0
-119 -144 0
-121 -147 0
-118 -150 0
-112 -145 0
-119 -153 0
-121 -152 0
-118 -149 0
-117 -150 0
-118 -148 0
-116 -149 0
-111 -147 0
-121 -146 0
-113 -150 0
-111 -148 0
-111 -146 0
-120 -145 0
-113 -145 0
-117 -200 0
-119 -208 0
-118 -208 0
-114 -204 0
-119 -200 0
-112 -202 0
-118 -204 0
-115 -205 0
-115 -204 0
-111 -204 0
-112 -206 0
-117 -205 0
-113 -209 0
-120 -200 0
-118 -209 0
-116 -201 0
-117 -203 0
-114 -201 0
-117 -208 0
-116 -208 0
-119 -209 0
-115 -209 0
-120 -208 0
-112 -204 0
-112 -209 0
-113 -205 0
-114 -200 0
-114 -206 0
-116 -203 0
-118 -201 0
-113 -203 0
-114 -205 0
-113 -202 0
-120 -202 0
-113 -206 0
-121 -199 0
-119 -223 0
-120 -231 0
-115 -222 0
-116 -229 0
-115 -225 0
-120 -229 0
-117 -228 0
-119 -226 0
-118 -226 0
-117 -221 0
-113 -227 0
-120 -223 0
-111 -222 0
-114 -231 0
-116 -221 0
-115 -226 0
-117 -223 0
-118 -225 0
-112 -228 0
-119 -230 0
-113 -231 0
-120 -225 0
-118 -228 0
-117 -222 0
-111 -225 0
-111 -228 0
-118 -223 0
-121 -229 0
-114 -226 0
-112 -224 0
-112 -223 0
-119 -221 0
-121 -231 0
-115 -230 0
-120 -221 0
-113 -230 0
-114 -262 0
-115 -262 0
-120 -263 0
-117 -255 0
-111 -262 0
-115 -259 0
-119 -261 0
-121 -261 0
-113 -258 0
-118 -258 0
-112 -259 0
-119 -262 0
-111 -257 0
-118 -255 0
-114 -257 0
-121 -262 0
-117 -261 0
-113 -263 0
-119 -263 0
-120 -254 0
-116 -259 0
-116 -263 0
-119 -264 0
-113 -262 0
-116 -262 0
-119 -260 0
-111 -256 0
-112 -256 0
-118 -261 0
-117 -257 0
-118 -260 0
-115 -256 0
-118 -256 0
-119 -258 0
-120 -261 0
-112 -261 0
-134 -242 0
-137 -232 0
-142 -241 0
-133 -240 0
-143 -239 0
-141 -242 0
-143 -233 0
-137 -233 0
-140 -241 0
-134 -232 0
-142 -235 0
-139 -236 0
-135 -237 0
-140 -233 0
-143 -235 0
-142 -238 0
-134 -234 0
-133 -236 0
-138 -242 0
-135 -241 0
-139 -242 0
-137 -239 0
-137 -242 0
-140 -239 0
-143 -238 0
-134 -239 0
-134 -235 0
-133 -241 0
-134 -241 0
-139 -234 0
-143 -237 0
-135 -236 0
-141 -241 0
-138 -233 0
-138 -234 0
-142 -239 0
-134 -284 0
-133 -279 0
-136 -284 0
-134 -282 0
-136 -280 0
-142 -276 0
-135 -286 0
-134 -283 0
-137 -281 0
-139 -285 0
-139 -279 0
-137 -276 0
-141 -276 0
-134 -279 0
-136 -285 0
-133 -286 0
-137 -280 0
-139 -284 0
-141 -285 0
-134 -285 0
-133 -283 0
-136 -278 0
-136 -276 0
-138 -280 0
-141 -284 0
-137 -284 0
-140 -286 0
-142 -278 0
-142 -279 0
-138 -279 0
-133 -280 0
-142 -286 0
-139 -281 0
-138 -276 0
-141 -282 0
-135 -285 0
-137 -310 0
-140 -310 0
-133 -319 0
-140 -319 0
-136 -316 0
-140 -311 0
-135 -317 0
-140 -314 0
-138 -316 0
-143 -310 0
-133 -318 0
-138 -312 0
-136 -318 0
-139 -315 0
-139 -310 0
-140 -317 0
-138 -309 0
-134 -309 0
-142 -316 0
-139 -314 0
-134 -311 0
-141 -315 0
-141 -316 0
-134 -315 0
-138 -319 0
-135 -312 0
-142 -315 0
-135 -310 0
-135 -313 0
-134 -317 0
-139 -317 0
-134 -313 0
-141 -311 0
-136 -311 0
-133 -314 0
-143 -315 0
-150 -165 0
-148 -163 0
-149 -163 0
-154 -156 0
-147 -160 0
-146 -160 0
-152 -156 0
-147 -162 0
-152 -155 0
-145 -158 0
-153 -159 0
-146 -159 0
-146 -155 0
-153 -162 0
-147 -158 0
-146 -157 0
-151 -157 0
-152 -165 0
-146 -165 0
-152 -158 0
-144 -159 0
-152 -160 0
-144 -156 0
-153 -156 0
-150 -156 0
-153 -164 0
-153 -158 0
-146 -162 0
-144 -155 0
-148 -160 0
-149 -157 0
-148 -165 0
-151 -159 0
-144 -165 0
-153 -161 0
-148 -157 0
-150 -274 0
-144 -266 0
-154 -273 0
-146 -273 0
-149 -265 0
-152 -266 0
-146 -270 0
-148 -266 0
-145 -273 0
-153 -271 0
-147 -269 0
-152 -275 0
-146 -266 0
-149 -271 0
-147 -265 0
-149 -270 0
-144 -270 0
-145 -265 0
-150 -273 0
-148 -273 0
-154 -265 0
-150 -266 0
-146 -272 0
-146 -267 0
-152 -270 0
-148 -268 0
-154 -268 0
-154 -275 0
-152 -268 0
-147 -275 0
-151 -265 0
-151 -275 0
-148 -267 0
-150 -275 0
-147 -271 0
-151 -268 0
-155 -179 0
-158 -180 0
-163 -179 0
-155 -187 0
-164 -186 0
-164 -178 0
-163 -182 0
-156 -177 0
-158 -179 0
-156 -187 0
-165 -185 0
-160 -178 0
-156 -179 0
-155 -184 0
-156 -186 0
-159 -186 0
-157 -179 0
-165 -187 0
-157 -180 0
-161 -187 0
-164 -179 0
-158 -184 0
-165 -182 0
-165 -186 0
-165 -180 0
-164 -181 0
-161 -180 0
-164 -187 0
-158 -181 0
-162 -177 0
-165 -178 0
-157 -187 0
-156 -185 0
-158 -178 0
-162 -185 0
-163 -177 0
-156 -205 0
-157 -205 0
-163 -201 0
-164 -209 0
-163 -203 0
-165 -209 0
-161 -209 0
-159 -204 0
-165 -200 0
-156 -202 0
-157 -202 0
-155 -204 0
-161 -207 0
-157 -201 0
-163 -209 0
-162 -205 0
-160 -200 0
-162 -202 0
-156 -200 0
-165 -204 0
-158 -205 0
-159 -209 0
-157 -206 0
-160 -209 0
-158 -204 0
-155 -206 0
-158 -202 0
-155 -207 0
-161 -205 0
-161 -204 0
-164 -207 0
-160 -203 0
-162 -206 0
-156 -207 0
-161 -199 0
-155 -202 0
-157 -239 0
-156 -233 0
-161 -235 0
-165 -241 0
-159 -241 0
-157 -238 0
-163 -238 0
-161 -233 0
-164 -241 0
-164 -240 0
-165 -236 0
-157 -241 0
-163 -234 0
-158 -233 0
-155 -239 0
-157 -232 0
-165 -234 0
-161 -240 0
-155 -238 0
-165 -233 0
-163 -240 0
-162 -235 0
-156 -234 0
-159 -234 0
-159 -235 0
-156 -238 0
-156 -242 0
-160 -242 0
-162 -241 0
-158 -241 0
-158 -234 0
-160 -241 0
-165 -239 0
-159 -236 0
-164 -233 0
-155 -234 0
-164 -251 0
-157 -251 0
-158 -243 0
-159 -251 0
-158 -244 0
-160 -249 0
-164 -244 0
-157 -247 0
-164 -243 0
-162 -248 0
-159 -245 0
-163 -247 0
-164 -246 0
-159 -253 0
-160 -245 0
-155 -250 0
-157 -252 0
-162 -253 0
-160 -246 0
-158 -249 0
-165 -251 0
-161 -245 0
-161 -247 0
-159 -246 0
-157 -253 0
-158 -252 0
-155 -248 0
-161 -253 0
-165 -249 0
-163 -252 0
-164 -247 0
-163 -244 0
-155 -247 0
-162 -243 0
-163 -248 0
-162 -244 0
-165 -283 0
-161 -276 0
-162 -280 0
-164 -280 0
-156 -286 0
-160 -283 0
-156 -284 0
-165 -281 0
-157 -280 0
-160 -280 0
-160 -276 0
-164 -284 0
-163 -281 0
-159 -284 0
-165 -276 0
-160 -277 0
-157 -278 0
-155 -280 0
-163 -279 0
-158 -285 0
-160 -278 0
-156 -281 0
-159 -283 0
-155 -286 0
-157 -281 0
-164 -285 0
-157 -285 0
-156 -283 0
-159 -280 0
-162 -279 0
-160 -281 0
-165 -284 0
-165 -285 0
-155 -285 0
-162 -283 0
-158 -278 0
-175 -189 0
-173 -196 0
-172 -197 0
-176 -193 0
-166 -193 0
-166 -197 0
-174 -189 0
-167 -191 0
-168 -189 0
-168 -198 0
-173 -193 0
-173 -190 0
-170 -196 0
-173 -189 0
-172 -198 0
-167 -197 0
-176 -197 0
-170 -189 0
-174 -191 0
-170 -192 0
-175 -194 0
-176 -196 0
-171 -188 0
-168 -188 0
-171 -195 0
-175 -192 0
-172 -196 0
-175 -190 0
-175 -197 0
-175 -188 0
-174 -198 0
-176 -189 0
-167 -198 0
-170 -198 0
-176 -195 0
-174 -190 0
-170 -281 0
-173 -277 0
-171 -276 0
-171 -281 0
-166 -286 0
-174 -284 0
-174 -282 0
-171 -279 0
-174 -280 0
-167 -285 0
-167 -282 0
-176 -278 0
-170 -285 0
-166 -285 0
-174 -278 0
-169 -283 0
-171 -283 0
-168 -281 0
-169 -285 0
-173 -282 0
-170 -276 0
-175 -278 0
-168 -280 0
-167 -283 0
-172 -278 0
-175 -285 0
-169 -284 0
-173 -278 0
-173 -284 0
-174 -281 0
-174 -283 0
-169 -278 0
-169 -281 0
-171 -278 0
-174 -276 0
-176 -283 0
-196 -228 0
-195 -231 0
-189 -225 0
-197 -228 0
-191 -225 0
-192 -223 0
-196 -230 0
-198 -227 0
-198 -230 0
-195 -222 0
-192 -221 0
-190 -229 0
-190 -225 0
-193 -228 0
-192 -228 0
-193 -231 0
-195 -227 0
-189 -229 0
-192 -225 0
-188 -226 0
-193 -226 0
-189 -223 0
-198 -224 0
-198 -228 0
-194 -224 0
-193 -222 0
-190 -222 0
-188 -224 0
-193 -225 0
-197 -230 0
-193 -224 0
-189 -222 0
-197 -222 0
-198 -222 0
-192 -222 0
-195 -229 0
-192 -304 0
-191 -303 0
-193 -307 0
-188 -301 0
-193 -305 0
-192 -306 0
-189 -298 0
-196 -304 0
-192 -305 0
-195 -303 0
-193 -308 0
-198 -298 0
-197 -305 0
-191 -302 0
-188 -305 0
-195 -300 0
-197 -302 0
-188 -302 0
-189 -302 0
-189 -304 0
-193 -301 0
-196 -305 0
-197 -307 0
-192 -300 0
-196 -302 0
-191 -307 0
-195 -299 0
-193 -306 0
-196 -299 0
-197 -304 0
-189 -299 0
-188 -299 0
-190 -299 0
-197 -306 0
-188 -304 0
-197 -299 0
-202 -252 0
-207 -253 0
-202 -243 0
-203 -244 0
-200 -243 0
-207 -243 0
-207 -244 0
-206 -246 0
-209 -253 0
-200 -250 0
-203 -250 0
-204 -251 0
-204 -250 0
-199 -252 0
-208 -250 0
-201 -247 0
-208 -245 0
-199 -247 0
-202 -245 0
-204 -253 0
-200 -247 0
-203 -248 0
-209 -249 0
-202 -251 0
-205 -249 0
-205 -245 0
-200 -249 0
-202 -246 0
-206 -247 0
-200 -252 0
-202 -249 0
-206 -253 0
-209 -252 0
-201 -249 0
-209 -246 0
-204 -249 0
-213 -238 0
-214 -233 0
-213 -241 0
-211 -241 0
-216 -238 0
-218 -242 0
-219 -239 0
-215 -241 0
-213 -233 0
-212 -234 0
-215 -233 0
-220 -236 0
-210 -233 0
-220 -235 0
-214 -238 0
-215 -236 0
-217 -239 0
-212 -240 0
-218 -240 0
-218 -232 0
-215 -232 0
-211 -238 0
-217 -235 0
-215 -234 0
-217 -240 0
-216 -232 0
-210 -239 0
-219 -237 0
-216 -235 0
-216 -237 0
-219 -241 0
-220 -238 0
-210 -232 0
-216 -234 0
-212 -237 0
-210 -242 0
-219 -321 0
-217 -323 0
-219 -329 0
-216 -324 0
-211 -329 0
-212 -328 0
-216 -322 0
-210 -330 0
-212 -327 0
-212 -322 0
-218 -321 0
-220 -324 0
-219 -330 0
-210 -329 0
-218 -325 0
-220 -325 0
-218 -320 0
-215 -328 0
-212 -325 0
-214 -323 0
-219 -322 0
-214 -329 0
-217 -327 0
-210 -323 0
-217 -325 0
-217 -321 0
-211 -322 0
-213 -329 0
-215 -321 0
-210 -328 0
-216 -321 0
-217 -320 0
-217 -328 0
-215 -330 0
-218 -324 0
-213 -322 0
-231 -248 0
-229 -244 0
-224 -250 0
-228 -243 0
-229 -243 0
-227 -243 0
-221 -247 0
-231 -246 0
-229 -245 0
-226 -243 0
-229 -252 0
-231 -249 0
-221 -253 0
-227 -249 0
-223 -252 0
-227 -253 0
-222 -253 0
-221 -245 0
-230 -251 0
-223 -248 0
-225 -249 0
-221 -252 0
-223 -250 0
-230 -247 0
-228 -245 0
-231 -245 0
-224 -251 0
-225 -246 0
-228 -244 0
-224 -244 0
-222 -247 0
-228 -249 0
-223 -253 0
-224 -248 0
-221 -251 0
-225 -248 0
-227 -291 0
-223 -296 0
-227 -288 0
-231 -296 0
-229 -288 0
-221 -297 0
-231 -289 0
-222 -292 0
-225 -289 0
-221 -293 0
-226 -293 0
-228 -297 0
-230 -297 0
-221 -290 0
-222 -291 0
-226 -295 0
-230 -291 0
-225 -294 0
-231 -295 0
-224 -295 0
-221 -294 0
-223 -295 0
-224 -289 0
-224 -297 0
-229 -290 0
-227 -290 0
-224 -290 0
-222 -289 0
-226 -294 0
-226 -296 0
-226 -292 0
-222 -287 0
-225 -296 0
-222 -296 0
-229 -289 0
-228 -294 0
-232 -316 0
-232 -309 0
-242 -311 0
-240 -310 0
-242 -319 0
-238 -312 0
-240 -316 0
-236 -313 0
-238 -316 0
-237 -309 0
-233 -311 0
-238 -313 0
-232 -319 0
-239 -312 0
-236 -315 0
-239 -313 0
-234 -309 0
-235 -314 0
-239 -318 0
-234 -313 0
-232 -317 0
-236 -314 0
-238 -314 0
-242 -310 0
-241 -310 0
-240 -312 0
-237 -314 0
-241 -309 0
-242 -315 0
-239 -310 0
-236 -316 0
-233 -309 0
-233 -317 0
-240 -317 0
-242 -313 0
-232 -311 0
-251 -323 0
-248 -327 0
-249 -330 0
-245 -321 0
-243 -320 0
-246 -327 0
-245 -324 0
-252 -320 0
-244 -328 0
-253 -324 0
-253 -322 0
-248 -320 0
-250 -325 0
-248 -324 0
-248 -321 0
-250 -321 0
-247 -321 0
-245 -327 0
-250 -329 0
-246 -329 0
-244 -325 0
-248 -330 0
-251 -328 0
-244 -330 0
-248 -322 0
-247 -327 0
-246 -321 0
-244 -326 0
-243 -322 0
-250 -326 0
-243 -325 0
-247 -330 0
-250 -328 0
-249 -324 0
-250 -324 0
-253 -329 0
